\ Model Kidney Two-ways Exchange
\ LP format - for model browsing. Use MPS format to capture full model detail.
Maximize
  E[0,67] + E[0,18] + E[0,59] + E[0,92] + E[0,21] + E[1,61] + E[1,85]
   + E[1,39] + E[2,67] + E[2,22] + E[2,87] + E[2,9] + E[2,12] + E[2,77]
   + E[3,80] + E[3,65] + E[3,35] + E[3,38] + E[3,95] + E[3,75] + E[3,44]
   + E[3,63] + E[4,0] + E[4,68] + E[4,40] + E[4,9] + E[4,59] + E[5,64]
   + E[5,33] + E[5,50] + E[5,40] + E[5,72] + E[5,28] + E[6,40] + E[6,44]
   + E[6,61] + E[6,95] + E[7,56] + E[7,74] + E[7,83] + E[7,45] + E[7,86]
   + E[8,64] + E[8,33] + E[8,76] + E[8,61] + E[8,79] + E[9,56] + E[9,41]
   + E[9,42] + E[9,28] + E[10,81] + E[10,46] + E[10,38] + E[10,77]
   + E[11,16] + E[11,19] + E[11,20] + E[11,86] + E[12,48] + E[12,2]
   + E[12,51] + E[12,42] + E[13,1] + E[13,83] + E[13,53] + E[13,89]
   + E[13,57] + E[14,51] + E[14,26] + E[14,19] + E[14,61] + E[14,95]
   + E[15,67] + E[15,69] + E[15,93] + E[16,56] + E[16,84] + E[16,93]
   + E[16,7] + E[17,36] + E[17,14] + E[17,12] + E[17,78] + E[17,46]
   + E[17,69] + E[18,51] + E[18,76] + E[18,13] + E[18,86] + E[18,45]
   + E[19,83] + E[19,15] + E[20,65] + E[20,46] + E[21,19] + E[21,84]
   + E[21,6] + E[21,25] + E[21,95] + E[21,47] + E[22,0] + E[22,33]
   + E[22,24] + E[22,44] + E[22,29] + E[22,62] + E[23,18] + E[23,36]
   + E[23,4] + E[23,74] + E[23,77] + E[23,31] + E[24,60] + E[24,67]
   + E[24,52] + E[24,38] + E[24,31] + E[25,9] + E[25,39] + E[26,32]
   + E[26,10] + E[26,50] + E[26,87] + E[27,24] + E[27,9] + E[27,83]
   + E[27,20] + E[27,81] + E[28,84] + E[28,78] + E[28,53] + E[28,30]
   + E[28,87] + E[29,64] + E[29,83] + E[29,19] + E[29,52] + E[29,25]
   + E[29,78] + E[30,17] + E[30,66] + E[30,21] + E[30,22] + E[30,49]
   + E[30,43] + E[30,82] + E[30,69] + E[31,41] + E[31,18] + E[31,67]
   + E[32,1] + E[32,50] + E[32,92] + E[32,29] + E[33,10] + E[33,67]
   + E[33,28] + E[33,31] + E[34,77] + E[34,86] + E[34,63] + E[35,66]
   + E[35,4] + E[35,53] + E[35,10] + E[35,94] + E[35,95] + E[36,52]
   + E[37,64] + E[37,59] + E[37,71] + E[38,33] + E[38,69] + E[38,73]
   + E[38,44] + E[38,14] + E[38,95] + E[39,48] + E[39,1] + E[39,51]
   + E[39,21] + E[39,86] + E[39,46] + E[39,79] + E[40,61] + E[40,87]
   + E[40,20] + E[40,37] + E[40,53] + E[41,72] + E[41,57] + E[41,18]
   + E[41,73] + E[41,47] + E[42,4] + E[43,19] + E[43,9] + E[43,11]
   + E[43,54] + E[44,16] + E[44,24] + E[44,36] + E[44,81] + E[45,65]
   + E[45,83] + E[45,37] + E[45,54] + E[45,78] + E[45,63] + E[46,49]
   + E[46,35] + E[46,25] + E[46,9] + E[46,31] + E[47,17] + E[47,19]
   + E[47,79] + E[48,34] + E[48,5] + E[48,87] + E[48,61] + E[49,48]
   + E[49,1] + E[49,83] + E[49,36] + E[49,39] + E[49,40] + E[49,80]
   + E[49,29] + E[50,95] + E[51,2] + E[51,91] + E[51,68] + E[51,88]
   + E[51,74] + E[51,27] + E[51,93] + E[51,62] + E[51,47] + E[52,0]
   + E[52,17] + E[52,90] + E[52,36] + E[53,48] + E[53,42] + E[53,87]
   + E[53,15] + E[54,19] + E[55,60] + E[55,18] + E[55,44] + E[55,85]
   + E[55,94] + E[56,75] + E[56,67] + E[56,20] + E[56,94] + E[56,7]
   + E[56,25] + E[56,42] + E[56,71] + E[56,92] + E[56,78] + E[57,0]
   + E[57,35] + E[57,76] + E[58,52] + E[58,5] + E[58,23] + E[59,84]
   + E[59,70] + E[59,53] + E[59,46] + E[59,47] + E[60,48] + E[60,26]
   + E[60,7] + E[61,17] + E[61,43] + E[61,44] + E[61,5] + E[61,55]
   + E[62,24] + E[62,92] + E[62,4] + E[62,86] + E[62,31] + E[63,34]
   + E[63,67] + E[63,61] + E[63,95] + E[64,84] + E[64,4] + E[64,54]
   + E[64,39] + E[64,8] + E[64,52] + E[64,71] + E[64,28] + E[65,17]
   + E[65,34] + E[65,84] + E[65,71] + E[65,56] + E[65,9] + E[65,44]
   + E[65,13] + E[66,18] + E[66,95] + E[66,21] + E[66,47] + E[67,56]
   + E[67,81] + E[67,35] + E[67,60] + E[67,15] + E[68,8] + E[68,49]
   + E[68,18] + E[68,11] + E[68,62] + E[69,83] + E[69,35] + E[69,8]
   + E[69,41] + E[69,92] + E[69,29] + E[69,62] + E[69,45] + E[70,17]
   + E[70,2] + E[70,50] + E[70,46] + E[71,0] + E[71,65] + E[71,66]
   + E[71,93] + E[71,73] + E[71,29] + E[71,30] + E[71,31] + E[72,32]
   + E[72,3] + E[72,4] + E[72,37] + E[72,11] + E[72,78] + E[72,53]
   + E[73,1] + E[73,35] + E[73,5] + E[73,72] + E[73,61] + E[73,77]
   + E[73,47] + E[74,33] + E[74,95] + E[74,5] + E[74,46] + E[74,39]
   + E[75,16] + E[75,64] + E[75,80] + E[75,41] + E[75,42] + E[75,74]
   + E[75,77] + E[75,15] + E[76,42] + E[76,5] + E[76,61] + E[77,50]
   + E[77,45] + E[77,70] + E[78,64] + E[78,19] + E[78,52] + E[78,53]
   + E[78,74] + E[78,46] + E[78,15] + E[79,17] + E[79,67] + E[79,21]
   + E[79,25] + E[79,41] + E[79,93] + E[80,0] + E[80,32] + E[80,35]
   + E[80,68] + E[80,8] + E[80,89] + E[80,93] + E[80,79] + E[81,88]
   + E[81,20] + E[81,85] + E[81,71] + E[81,8] + E[81,47] + E[81,28]
   + E[81,45] + E[81,31] + E[82,90] + E[82,44] + E[82,21] + E[83,88]
   + E[83,33] + E[83,89] + E[84,73] + E[84,42] + E[84,82] + E[84,22]
   + E[85,16] + E[85,64] + E[85,50] + E[85,35] + E[85,22] + E[85,58]
   + E[86,37] + E[86,40] + E[86,25] + E[86,11] + E[86,13] + E[86,62]
   + E[86,93] + E[87,66] + E[87,44] + E[88,33] + E[88,44] + E[88,70]
   + E[89,17] + E[89,66] + E[89,5] + E[89,54] + E[89,23] + E[89,26]
   + E[89,43] + E[89,93] + E[89,31] + E[90,25] + E[90,82] + E[90,35]
   + E[90,13] + E[90,22] + E[91,74] + E[91,87] + E[92,87] + E[92,13]
   + E[92,38] + E[92,61] + E[93,1] + E[93,37] + E[94,77] + E[94,30]
   + E[95,24] + E[95,93] + E[95,47] + E[96,93] + E[97,48] + E[97,53]
   + E[97,23] + E[97,88] + E[97,71] + E[97,7] + E[97,12] + E[98,56]
   + E[98,75] + E[98,76] + E[99,2] + E[99,35] + E[99,36] + E[99,66]
   + E[99,46] + E[99,27] + E[99,21] + E[99,22] + E[99,88] + E[99,59]
   + E[99,62] + E[99,95]
Subject To
 OneMatchConstr[0]: E[0,67] + E[0,18] + E[0,59] + E[0,92] + E[0,21]
   + E[4,0] + E[22,0] + E[52,0] + E[57,0] + E[71,0] + E[80,0] <= 1
 OneMatchConstr[1]: E[1,61] + E[1,85] + E[1,39] + E[13,1] + E[32,1]
   + E[39,1] + E[49,1] + E[73,1] + E[93,1] <= 1
 OneMatchConstr[2]: E[2,67] + E[2,22] + E[2,87] + E[2,9] + E[2,12]
   + E[2,77] + E[12,2] + E[51,2] + E[70,2] + E[99,2] <= 1
 OneMatchConstr[3]: E[3,80] + E[3,65] + E[3,35] + E[3,38] + E[3,95]
   + E[3,75] + E[3,44] + E[3,63] + E[72,3] <= 1
 OneMatchConstr[4]: E[4,0] + E[4,68] + E[4,40] + E[4,9] + E[4,59] + E[23,4]
   + E[35,4] + E[42,4] + E[62,4] + E[64,4] + E[72,4] <= 1
 OneMatchConstr[5]: E[5,64] + E[5,33] + E[5,50] + E[5,40] + E[5,72]
   + E[5,28] + E[48,5] + E[58,5] + E[61,5] + E[73,5] + E[74,5] + E[76,5]
   + E[89,5] <= 1
 OneMatchConstr[6]: E[6,40] + E[6,44] + E[6,61] + E[6,95] + E[21,6] <= 1
 OneMatchConstr[7]: E[7,56] + E[7,74] + E[7,83] + E[7,45] + E[7,86]
   + E[16,7] + E[56,7] + E[60,7] + E[97,7] <= 1
 OneMatchConstr[8]: E[8,64] + E[8,33] + E[8,76] + E[8,61] + E[8,79]
   + E[64,8] + E[68,8] + E[69,8] + E[80,8] + E[81,8] <= 1
 OneMatchConstr[9]: E[2,9] + E[4,9] + E[9,56] + E[9,41] + E[9,42] + E[9,28]
   + E[25,9] + E[27,9] + E[43,9] + E[46,9] + E[65,9] <= 1
 OneMatchConstr[10]: E[10,81] + E[10,46] + E[10,38] + E[10,77] + E[26,10]
   + E[33,10] + E[35,10] <= 1
 OneMatchConstr[11]: E[11,16] + E[11,19] + E[11,20] + E[11,86] + E[43,11]
   + E[68,11] + E[72,11] + E[86,11] <= 1
 OneMatchConstr[12]: E[2,12] + E[12,48] + E[12,2] + E[12,51] + E[12,42]
   + E[17,12] + E[97,12] <= 1
 OneMatchConstr[13]: E[13,1] + E[13,83] + E[13,53] + E[13,89] + E[13,57]
   + E[18,13] + E[65,13] + E[86,13] + E[90,13] + E[92,13] <= 1
 OneMatchConstr[14]: E[14,51] + E[14,26] + E[14,19] + E[14,61] + E[14,95]
   + E[17,14] + E[38,14] <= 1
 OneMatchConstr[15]: E[15,67] + E[15,69] + E[15,93] + E[19,15] + E[53,15]
   + E[67,15] + E[75,15] + E[78,15] <= 1
 OneMatchConstr[16]: E[11,16] + E[16,56] + E[16,84] + E[16,93] + E[16,7]
   + E[44,16] + E[75,16] + E[85,16] <= 1
 OneMatchConstr[17]: E[17,36] + E[17,14] + E[17,12] + E[17,78] + E[17,46]
   + E[17,69] + E[30,17] + E[47,17] + E[52,17] + E[61,17] + E[65,17]
   + E[70,17] + E[79,17] + E[89,17] <= 1
 OneMatchConstr[18]: E[0,18] + E[18,51] + E[18,76] + E[18,13] + E[18,86]
   + E[18,45] + E[23,18] + E[31,18] + E[41,18] + E[55,18] + E[66,18]
   + E[68,18] <= 1
 OneMatchConstr[19]: E[11,19] + E[14,19] + E[19,83] + E[19,15] + E[21,19]
   + E[29,19] + E[43,19] + E[47,19] + E[54,19] + E[78,19] <= 1
 OneMatchConstr[20]: E[11,20] + E[20,65] + E[20,46] + E[27,20] + E[40,20]
   + E[56,20] + E[81,20] <= 1
 OneMatchConstr[21]: E[0,21] + E[21,19] + E[21,84] + E[21,6] + E[21,25]
   + E[21,95] + E[21,47] + E[30,21] + E[39,21] + E[66,21] + E[79,21]
   + E[82,21] + E[99,21] <= 1
 OneMatchConstr[22]: E[2,22] + E[22,0] + E[22,33] + E[22,24] + E[22,44]
   + E[22,29] + E[22,62] + E[30,22] + E[84,22] + E[85,22] + E[90,22]
   + E[99,22] <= 1
 OneMatchConstr[23]: E[23,18] + E[23,36] + E[23,4] + E[23,74] + E[23,77]
   + E[23,31] + E[58,23] + E[89,23] + E[97,23] <= 1
 OneMatchConstr[24]: E[22,24] + E[24,60] + E[24,67] + E[24,52] + E[24,38]
   + E[24,31] + E[27,24] + E[44,24] + E[62,24] + E[95,24] <= 1
 OneMatchConstr[25]: E[21,25] + E[25,9] + E[25,39] + E[29,25] + E[46,25]
   + E[56,25] + E[79,25] + E[86,25] + E[90,25] <= 1
 OneMatchConstr[26]: E[14,26] + E[26,32] + E[26,10] + E[26,50] + E[26,87]
   + E[60,26] + E[89,26] <= 1
 OneMatchConstr[27]: E[27,24] + E[27,9] + E[27,83] + E[27,20] + E[27,81]
   + E[51,27] + E[99,27] <= 1
 OneMatchConstr[28]: E[5,28] + E[9,28] + E[28,84] + E[28,78] + E[28,53]
   + E[28,30] + E[28,87] + E[33,28] + E[64,28] + E[81,28] <= 1
 OneMatchConstr[29]: E[22,29] + E[29,64] + E[29,83] + E[29,19] + E[29,52]
   + E[29,25] + E[29,78] + E[32,29] + E[49,29] + E[69,29] + E[71,29] <= 1
 OneMatchConstr[30]: E[28,30] + E[30,17] + E[30,66] + E[30,21] + E[30,22]
   + E[30,49] + E[30,43] + E[30,82] + E[30,69] + E[71,30] + E[94,30] <= 1
 OneMatchConstr[31]: E[23,31] + E[24,31] + E[31,41] + E[31,18] + E[31,67]
   + E[33,31] + E[46,31] + E[62,31] + E[71,31] + E[81,31] + E[89,31] <= 1
 OneMatchConstr[32]: E[26,32] + E[32,1] + E[32,50] + E[32,92] + E[32,29]
   + E[72,32] + E[80,32] <= 1
 OneMatchConstr[33]: E[5,33] + E[8,33] + E[22,33] + E[33,10] + E[33,67]
   + E[33,28] + E[33,31] + E[38,33] + E[74,33] + E[83,33] + E[88,33] <= 1
 OneMatchConstr[34]: E[34,77] + E[34,86] + E[34,63] + E[48,34] + E[63,34]
   + E[65,34] <= 1
 OneMatchConstr[35]: E[3,35] + E[35,66] + E[35,4] + E[35,53] + E[35,10]
   + E[35,94] + E[35,95] + E[46,35] + E[57,35] + E[67,35] + E[69,35]
   + E[73,35] + E[80,35] + E[85,35] + E[90,35] + E[99,35] <= 1
 OneMatchConstr[36]: E[17,36] + E[23,36] + E[36,52] + E[44,36] + E[49,36]
   + E[52,36] + E[99,36] <= 1
 OneMatchConstr[37]: E[37,64] + E[37,59] + E[37,71] + E[40,37] + E[45,37]
   + E[72,37] + E[86,37] + E[93,37] <= 1
 OneMatchConstr[38]: E[3,38] + E[10,38] + E[24,38] + E[38,33] + E[38,69]
   + E[38,73] + E[38,44] + E[38,14] + E[38,95] + E[92,38] <= 1
 OneMatchConstr[39]: E[1,39] + E[25,39] + E[39,48] + E[39,1] + E[39,51]
   + E[39,21] + E[39,86] + E[39,46] + E[39,79] + E[49,39] + E[64,39]
   + E[74,39] <= 1
 OneMatchConstr[40]: E[4,40] + E[5,40] + E[6,40] + E[40,61] + E[40,87]
   + E[40,20] + E[40,37] + E[40,53] + E[49,40] + E[86,40] <= 1
 OneMatchConstr[41]: E[9,41] + E[31,41] + E[41,72] + E[41,57] + E[41,18]
   + E[41,73] + E[41,47] + E[69,41] + E[75,41] + E[79,41] <= 1
 OneMatchConstr[42]: E[9,42] + E[12,42] + E[42,4] + E[53,42] + E[56,42]
   + E[75,42] + E[76,42] + E[84,42] <= 1
 OneMatchConstr[43]: E[30,43] + E[43,19] + E[43,9] + E[43,11] + E[43,54]
   + E[61,43] + E[89,43] <= 1
 OneMatchConstr[44]: E[3,44] + E[6,44] + E[22,44] + E[38,44] + E[44,16]
   + E[44,24] + E[44,36] + E[44,81] + E[55,44] + E[61,44] + E[65,44]
   + E[82,44] + E[87,44] + E[88,44] <= 1
 OneMatchConstr[45]: E[7,45] + E[18,45] + E[45,65] + E[45,83] + E[45,37]
   + E[45,54] + E[45,78] + E[45,63] + E[69,45] + E[77,45] + E[81,45] <= 1
 OneMatchConstr[46]: E[10,46] + E[17,46] + E[20,46] + E[39,46] + E[46,49]
   + E[46,35] + E[46,25] + E[46,9] + E[46,31] + E[59,46] + E[70,46]
   + E[74,46] + E[78,46] + E[99,46] <= 1
 OneMatchConstr[47]: E[21,47] + E[41,47] + E[47,17] + E[47,19] + E[47,79]
   + E[51,47] + E[59,47] + E[66,47] + E[73,47] + E[81,47] + E[95,47] <= 1
 OneMatchConstr[48]: E[12,48] + E[39,48] + E[48,34] + E[48,5] + E[48,87]
   + E[48,61] + E[49,48] + E[53,48] + E[60,48] + E[97,48] <= 1
 OneMatchConstr[49]: E[30,49] + E[46,49] + E[49,48] + E[49,1] + E[49,83]
   + E[49,36] + E[49,39] + E[49,40] + E[49,80] + E[49,29] + E[68,49] <= 1
 OneMatchConstr[50]: E[5,50] + E[26,50] + E[32,50] + E[50,95] + E[70,50]
   + E[77,50] + E[85,50] <= 1
 OneMatchConstr[51]: E[12,51] + E[14,51] + E[18,51] + E[39,51] + E[51,2]
   + E[51,91] + E[51,68] + E[51,88] + E[51,74] + E[51,27] + E[51,93]
   + E[51,62] + E[51,47] <= 1
 OneMatchConstr[52]: E[24,52] + E[29,52] + E[36,52] + E[52,0] + E[52,17]
   + E[52,90] + E[52,36] + E[58,52] + E[64,52] + E[78,52] <= 1
 OneMatchConstr[53]: E[13,53] + E[28,53] + E[35,53] + E[40,53] + E[53,48]
   + E[53,42] + E[53,87] + E[53,15] + E[59,53] + E[72,53] + E[78,53]
   + E[97,53] <= 1
 OneMatchConstr[54]: E[43,54] + E[45,54] + E[54,19] + E[64,54] + E[89,54]
   <= 1
 OneMatchConstr[55]: E[55,60] + E[55,18] + E[55,44] + E[55,85] + E[55,94]
   + E[61,55] <= 1
 OneMatchConstr[56]: E[7,56] + E[9,56] + E[16,56] + E[56,75] + E[56,67]
   + E[56,20] + E[56,94] + E[56,7] + E[56,25] + E[56,42] + E[56,71]
   + E[56,92] + E[56,78] + E[65,56] + E[67,56] + E[98,56] <= 1
 OneMatchConstr[57]: E[13,57] + E[41,57] + E[57,0] + E[57,35] + E[57,76]
   <= 1
 OneMatchConstr[58]: E[58,52] + E[58,5] + E[58,23] + E[85,58] <= 1
 OneMatchConstr[59]: E[0,59] + E[4,59] + E[37,59] + E[59,84] + E[59,70]
   + E[59,53] + E[59,46] + E[59,47] + E[99,59] <= 1
 OneMatchConstr[60]: E[24,60] + E[55,60] + E[60,48] + E[60,26] + E[60,7]
   + E[67,60] <= 1
 OneMatchConstr[61]: E[1,61] + E[6,61] + E[8,61] + E[14,61] + E[40,61]
   + E[48,61] + E[61,17] + E[61,43] + E[61,44] + E[61,5] + E[61,55]
   + E[63,61] + E[73,61] + E[76,61] + E[92,61] <= 1
 OneMatchConstr[62]: E[22,62] + E[51,62] + E[62,24] + E[62,92] + E[62,4]
   + E[62,86] + E[62,31] + E[68,62] + E[69,62] + E[86,62] + E[99,62] <= 1
 OneMatchConstr[63]: E[3,63] + E[34,63] + E[45,63] + E[63,34] + E[63,67]
   + E[63,61] + E[63,95] <= 1
 OneMatchConstr[64]: E[5,64] + E[8,64] + E[29,64] + E[37,64] + E[64,84]
   + E[64,4] + E[64,54] + E[64,39] + E[64,8] + E[64,52] + E[64,71]
   + E[64,28] + E[75,64] + E[78,64] + E[85,64] <= 1
 OneMatchConstr[65]: E[3,65] + E[20,65] + E[45,65] + E[65,17] + E[65,34]
   + E[65,84] + E[65,71] + E[65,56] + E[65,9] + E[65,44] + E[65,13]
   + E[71,65] <= 1
 OneMatchConstr[66]: E[30,66] + E[35,66] + E[66,18] + E[66,95] + E[66,21]
   + E[66,47] + E[71,66] + E[87,66] + E[89,66] + E[99,66] <= 1
 OneMatchConstr[67]: E[0,67] + E[2,67] + E[15,67] + E[24,67] + E[31,67]
   + E[33,67] + E[56,67] + E[63,67] + E[67,56] + E[67,81] + E[67,35]
   + E[67,60] + E[67,15] + E[79,67] <= 1
 OneMatchConstr[68]: E[4,68] + E[51,68] + E[68,8] + E[68,49] + E[68,18]
   + E[68,11] + E[68,62] + E[80,68] <= 1
 OneMatchConstr[69]: E[15,69] + E[17,69] + E[30,69] + E[38,69] + E[69,83]
   + E[69,35] + E[69,8] + E[69,41] + E[69,92] + E[69,29] + E[69,62]
   + E[69,45] <= 1
 OneMatchConstr[70]: E[59,70] + E[70,17] + E[70,2] + E[70,50] + E[70,46]
   + E[77,70] + E[88,70] <= 1
 OneMatchConstr[71]: E[37,71] + E[56,71] + E[64,71] + E[65,71] + E[71,0]
   + E[71,65] + E[71,66] + E[71,93] + E[71,73] + E[71,29] + E[71,30]
   + E[71,31] + E[81,71] + E[97,71] <= 1
 OneMatchConstr[72]: E[5,72] + E[41,72] + E[72,32] + E[72,3] + E[72,4]
   + E[72,37] + E[72,11] + E[72,78] + E[72,53] + E[73,72] <= 1
 OneMatchConstr[73]: E[38,73] + E[41,73] + E[71,73] + E[73,1] + E[73,35]
   + E[73,5] + E[73,72] + E[73,61] + E[73,77] + E[73,47] + E[84,73] <= 1
 OneMatchConstr[74]: E[7,74] + E[23,74] + E[51,74] + E[74,33] + E[74,95]
   + E[74,5] + E[74,46] + E[74,39] + E[75,74] + E[78,74] + E[91,74] <= 1
 OneMatchConstr[75]: E[3,75] + E[56,75] + E[75,16] + E[75,64] + E[75,80]
   + E[75,41] + E[75,42] + E[75,74] + E[75,77] + E[75,15] + E[98,75] <= 1
 OneMatchConstr[76]: E[8,76] + E[18,76] + E[57,76] + E[76,42] + E[76,5]
   + E[76,61] + E[98,76] <= 1
 OneMatchConstr[77]: E[2,77] + E[10,77] + E[23,77] + E[34,77] + E[73,77]
   + E[75,77] + E[77,50] + E[77,45] + E[77,70] + E[94,77] <= 1
 OneMatchConstr[78]: E[17,78] + E[28,78] + E[29,78] + E[45,78] + E[56,78]
   + E[72,78] + E[78,64] + E[78,19] + E[78,52] + E[78,53] + E[78,74]
   + E[78,46] + E[78,15] <= 1
 OneMatchConstr[79]: E[8,79] + E[39,79] + E[47,79] + E[79,17] + E[79,67]
   + E[79,21] + E[79,25] + E[79,41] + E[79,93] + E[80,79] <= 1
 OneMatchConstr[80]: E[3,80] + E[49,80] + E[75,80] + E[80,0] + E[80,32]
   + E[80,35] + E[80,68] + E[80,8] + E[80,89] + E[80,93] + E[80,79] <= 1
 OneMatchConstr[81]: E[10,81] + E[27,81] + E[44,81] + E[67,81] + E[81,88]
   + E[81,20] + E[81,85] + E[81,71] + E[81,8] + E[81,47] + E[81,28]
   + E[81,45] + E[81,31] <= 1
 OneMatchConstr[82]: E[30,82] + E[82,90] + E[82,44] + E[82,21] + E[84,82]
   + E[90,82] <= 1
 OneMatchConstr[83]: E[7,83] + E[13,83] + E[19,83] + E[27,83] + E[29,83]
   + E[45,83] + E[49,83] + E[69,83] + E[83,88] + E[83,33] + E[83,89] <= 1
 OneMatchConstr[84]: E[16,84] + E[21,84] + E[28,84] + E[59,84] + E[64,84]
   + E[65,84] + E[84,73] + E[84,42] + E[84,82] + E[84,22] <= 1
 OneMatchConstr[85]: E[1,85] + E[55,85] + E[81,85] + E[85,16] + E[85,64]
   + E[85,50] + E[85,35] + E[85,22] + E[85,58] <= 1
 OneMatchConstr[86]: E[7,86] + E[11,86] + E[18,86] + E[34,86] + E[39,86]
   + E[62,86] + E[86,37] + E[86,40] + E[86,25] + E[86,11] + E[86,13]
   + E[86,62] + E[86,93] <= 1
 OneMatchConstr[87]: E[2,87] + E[26,87] + E[28,87] + E[40,87] + E[48,87]
   + E[53,87] + E[87,66] + E[87,44] + E[91,87] + E[92,87] <= 1
 OneMatchConstr[88]: E[51,88] + E[81,88] + E[83,88] + E[88,33] + E[88,44]
   + E[88,70] + E[97,88] + E[99,88] <= 1
 OneMatchConstr[89]: E[13,89] + E[80,89] + E[83,89] + E[89,17] + E[89,66]
   + E[89,5] + E[89,54] + E[89,23] + E[89,26] + E[89,43] + E[89,93]
   + E[89,31] <= 1
 OneMatchConstr[90]: E[52,90] + E[82,90] + E[90,25] + E[90,82] + E[90,35]
   + E[90,13] + E[90,22] <= 1
 OneMatchConstr[91]: E[51,91] + E[91,74] + E[91,87] <= 1
 OneMatchConstr[92]: E[0,92] + E[32,92] + E[56,92] + E[62,92] + E[69,92]
   + E[92,87] + E[92,13] + E[92,38] + E[92,61] <= 1
 OneMatchConstr[93]: E[15,93] + E[16,93] + E[51,93] + E[71,93] + E[79,93]
   + E[80,93] + E[86,93] + E[89,93] + E[93,1] + E[93,37] + E[95,93]
   + E[96,93] <= 1
 OneMatchConstr[94]: E[35,94] + E[55,94] + E[56,94] + E[94,77] + E[94,30]
   <= 1
 OneMatchConstr[95]: E[3,95] + E[6,95] + E[14,95] + E[21,95] + E[35,95]
   + E[38,95] + E[50,95] + E[63,95] + E[66,95] + E[74,95] + E[95,24]
   + E[95,93] + E[95,47] + E[99,95] <= 1
 OneMatchConstr[96]: E[96,93] <= 1
 OneMatchConstr[97]: E[97,48] + E[97,53] + E[97,23] + E[97,88] + E[97,71]
   + E[97,7] + E[97,12] <= 1
 OneMatchConstr[98]: E[98,56] + E[98,75] + E[98,76] <= 1
 OneMatchConstr[99]: E[99,2] + E[99,35] + E[99,36] + E[99,66] + E[99,46]
   + E[99,27] + E[99,21] + E[99,22] + E[99,88] + E[99,59] + E[99,62]
   + E[99,95] <= 1
 OneMatchConstr[100]: <= 1
Bounds
Binaries
 E[0,67] E[0,18] E[0,59] E[0,92] E[0,21] E[1,61] E[1,85] E[1,39] E[2,67]
 E[2,22] E[2,87] E[2,9] E[2,12] E[2,77] E[3,80] E[3,65] E[3,35] E[3,38]
 E[3,95] E[3,75] E[3,44] E[3,63] E[4,0] E[4,68] E[4,40] E[4,9] E[4,59]
 E[5,64] E[5,33] E[5,50] E[5,40] E[5,72] E[5,28] E[6,40] E[6,44] E[6,61]
 E[6,95] E[7,56] E[7,74] E[7,83] E[7,45] E[7,86] E[8,64] E[8,33] E[8,76]
 E[8,61] E[8,79] E[9,56] E[9,41] E[9,42] E[9,28] E[10,81] E[10,46] E[10,38]
 E[10,77] E[11,16] E[11,19] E[11,20] E[11,86] E[12,48] E[12,2] E[12,51]
 E[12,42] E[13,1] E[13,83] E[13,53] E[13,89] E[13,57] E[14,51] E[14,26]
 E[14,19] E[14,61] E[14,95] E[15,67] E[15,69] E[15,93] E[16,56] E[16,84]
 E[16,93] E[16,7] E[17,36] E[17,14] E[17,12] E[17,78] E[17,46] E[17,69]
 E[18,51] E[18,76] E[18,13] E[18,86] E[18,45] E[19,83] E[19,15] E[20,65]
 E[20,46] E[21,19] E[21,84] E[21,6] E[21,25] E[21,95] E[21,47] E[22,0]
 E[22,33] E[22,24] E[22,44] E[22,29] E[22,62] E[23,18] E[23,36] E[23,4]
 E[23,74] E[23,77] E[23,31] E[24,60] E[24,67] E[24,52] E[24,38] E[24,31]
 E[25,9] E[25,39] E[26,32] E[26,10] E[26,50] E[26,87] E[27,24] E[27,9]
 E[27,83] E[27,20] E[27,81] E[28,84] E[28,78] E[28,53] E[28,30] E[28,87]
 E[29,64] E[29,83] E[29,19] E[29,52] E[29,25] E[29,78] E[30,17] E[30,66]
 E[30,21] E[30,22] E[30,49] E[30,43] E[30,82] E[30,69] E[31,41] E[31,18]
 E[31,67] E[32,1] E[32,50] E[32,92] E[32,29] E[33,10] E[33,67] E[33,28]
 E[33,31] E[34,77] E[34,86] E[34,63] E[35,66] E[35,4] E[35,53] E[35,10]
 E[35,94] E[35,95] E[36,52] E[37,64] E[37,59] E[37,71] E[38,33] E[38,69]
 E[38,73] E[38,44] E[38,14] E[38,95] E[39,48] E[39,1] E[39,51] E[39,21]
 E[39,86] E[39,46] E[39,79] E[40,61] E[40,87] E[40,20] E[40,37] E[40,53]
 E[41,72] E[41,57] E[41,18] E[41,73] E[41,47] E[42,4] E[43,19] E[43,9]
 E[43,11] E[43,54] E[44,16] E[44,24] E[44,36] E[44,81] E[45,65] E[45,83]
 E[45,37] E[45,54] E[45,78] E[45,63] E[46,49] E[46,35] E[46,25] E[46,9]
 E[46,31] E[47,17] E[47,19] E[47,79] E[48,34] E[48,5] E[48,87] E[48,61]
 E[49,48] E[49,1] E[49,83] E[49,36] E[49,39] E[49,40] E[49,80] E[49,29]
 E[50,95] E[51,2] E[51,91] E[51,68] E[51,88] E[51,74] E[51,27] E[51,93]
 E[51,62] E[51,47] E[52,0] E[52,17] E[52,90] E[52,36] E[53,48] E[53,42]
 E[53,87] E[53,15] E[54,19] E[55,60] E[55,18] E[55,44] E[55,85] E[55,94]
 E[56,75] E[56,67] E[56,20] E[56,94] E[56,7] E[56,25] E[56,42] E[56,71]
 E[56,92] E[56,78] E[57,0] E[57,35] E[57,76] E[58,52] E[58,5] E[58,23]
 E[59,84] E[59,70] E[59,53] E[59,46] E[59,47] E[60,48] E[60,26] E[60,7]
 E[61,17] E[61,43] E[61,44] E[61,5] E[61,55] E[62,24] E[62,92] E[62,4]
 E[62,86] E[62,31] E[63,34] E[63,67] E[63,61] E[63,95] E[64,84] E[64,4]
 E[64,54] E[64,39] E[64,8] E[64,52] E[64,71] E[64,28] E[65,17] E[65,34]
 E[65,84] E[65,71] E[65,56] E[65,9] E[65,44] E[65,13] E[66,18] E[66,95]
 E[66,21] E[66,47] E[67,56] E[67,81] E[67,35] E[67,60] E[67,15] E[68,8]
 E[68,49] E[68,18] E[68,11] E[68,62] E[69,83] E[69,35] E[69,8] E[69,41]
 E[69,92] E[69,29] E[69,62] E[69,45] E[70,17] E[70,2] E[70,50] E[70,46]
 E[71,0] E[71,65] E[71,66] E[71,93] E[71,73] E[71,29] E[71,30] E[71,31]
 E[72,32] E[72,3] E[72,4] E[72,37] E[72,11] E[72,78] E[72,53] E[73,1]
 E[73,35] E[73,5] E[73,72] E[73,61] E[73,77] E[73,47] E[74,33] E[74,95]
 E[74,5] E[74,46] E[74,39] E[75,16] E[75,64] E[75,80] E[75,41] E[75,42]
 E[75,74] E[75,77] E[75,15] E[76,42] E[76,5] E[76,61] E[77,50] E[77,45]
 E[77,70] E[78,64] E[78,19] E[78,52] E[78,53] E[78,74] E[78,46] E[78,15]
 E[79,17] E[79,67] E[79,21] E[79,25] E[79,41] E[79,93] E[80,0] E[80,32]
 E[80,35] E[80,68] E[80,8] E[80,89] E[80,93] E[80,79] E[81,88] E[81,20]
 E[81,85] E[81,71] E[81,8] E[81,47] E[81,28] E[81,45] E[81,31] E[82,90]
 E[82,44] E[82,21] E[83,88] E[83,33] E[83,89] E[84,73] E[84,42] E[84,82]
 E[84,22] E[85,16] E[85,64] E[85,50] E[85,35] E[85,22] E[85,58] E[86,37]
 E[86,40] E[86,25] E[86,11] E[86,13] E[86,62] E[86,93] E[87,66] E[87,44]
 E[88,33] E[88,44] E[88,70] E[89,17] E[89,66] E[89,5] E[89,54] E[89,23]
 E[89,26] E[89,43] E[89,93] E[89,31] E[90,25] E[90,82] E[90,35] E[90,13]
 E[90,22] E[91,74] E[91,87] E[92,87] E[92,13] E[92,38] E[92,61] E[93,1]
 E[93,37] E[94,77] E[94,30] E[95,24] E[95,93] E[95,47] E[96,93] E[97,48]
 E[97,53] E[97,23] E[97,88] E[97,71] E[97,7] E[97,12] E[98,56] E[98,75]
 E[98,76] E[99,2] E[99,35] E[99,36] E[99,66] E[99,46] E[99,27] E[99,21]
 E[99,22] E[99,88] E[99,59] E[99,62] E[99,95]
End
